peakDumbCharging = 22200; 
Machine = anon_enum(16); 
machineSpeed = [3700,3700,3700,3700,3700,3700,3700,3700,3700,3700,3700,3700,3700,3700,3700,3700]; 
machineLoad = [3700,3700,3700,3700,3700,3700,3700,3700,3700,3700,3700,3700,3700,3700,3700,3700]; 
Car = anon_enum(31); 
demandCar = [3640,3040,1280,15480,2240,10280,2760,6640,3080,24680,2560,4640,4840,19400,20720,6920,10560,5600,2400,5840,2720,8080,27000,6800,8480,7040,2960,9920,59120,34360,9800]; 
arrivalCar = [67,66,65,65,63,63,63,63,62,61,60,59,57,56,55,55,54,53,53,52,51,47,43,41,41,38,37,33,24,23,23]; 
departureCar = [70,69,67,71,65,73,66,67,72,71,62,61,61,65,65,60,58,58,55,55,53,51,55,44,47,41,39,37,56,48,60]; 
